c A SAT instance generated from a 3-CNF formula that had 10 clauses and 5 variables
p cnf 5 10
2 -1 4 0
3 5 1 0
4 -3 2 0
5 1 -4 0
-2 -1 5 0
4 3 -1 0
3 -2 1 0
3 -1 2 0
5 -3 1 0
4 -2 -3 0
%
0

49 93 95 65 28
